
se = 40; % nombre de sessions
gr = 20; % nombre de grups de treball
cl = 7; % nombre de slots
minPapersPerSlot = 3; % minim nombre d'articles per sessio i slot
maxSesionsPar = 14; % maxim nombre de sessions paraleles

npMax = [6, 4, 3, 6, 5, 5, 3]; % nombre maxim de papers per slot

np = [11, 3, 9, 12, 3, 4, 8, 18, 5, 3, 9, 17, 5, 3, 7, 3, 14, 3, 5, 17, 5, 12, 3, 4, 13, 3, 7, 3, 3, 6, 3, 15, 7, 15, 3, 6, 10, 11, 10, 15]; % nombre de papers acceptats a cada sessio

WG = [ {1}, {}, {2}, {}, {}, {3}, {4}, {5,6}, {}, {}, {7}, {8,9,10}, {}, {11}, {12}, {13}, {}, {14}, {15,16}, {}, {17}, {18,19}, {}, {}, {20,1,2}, {}, {3}, {}, {}, {4,5,6}, {}, {}, {}, {7,8,9}, {10}, {11,12,13}, {14}, {15,16}, {}, {17} ]; % grups per sessio

